561,36
470,115
227,175
494,311
539,360
453,332
618,469
629,478
1006,457
1041,406
871,596
803,646
773,691
690,378
540,212
910,91
874,140
847,-107
885,6
782,93
718,292
630,731
532,700
448,639
225,554
1194,240
1162,161
657,389
745,605
